p cnf 12 50 
-4 10 -1 0
-12 3 1 0
1 -11 6 0
10 -1 -5 0
6 -2 -5 0
8 -1 -5 0
-10 -7 6 0
-11 8 -2 0
-3 9 -4 0
-11 9 12 0
10 6 11 0
-9 -10 -8 0
12 3 -11 0
-1 -5 7 0
-9 -3 -2 0
-2 11 -7 0
8 10 3 0
7 1 6 0
-12 -11 -6 0
9 -6 7 0
-8 -9 1 0
10 9 11 0
-4 1 -5 0
-2 5 -4 0
5 -11 -10 0
10 12 -7 0
7 -5 -4 0
3 -11 8 0
6 5 -4 0
3 9 -4 0
-7 -12 -8 0
-2 1 -7 0
7 8 -5 0
-12 -6 -11 0
-7 -6 3 0
-4 6 5 0
8 5 -10 0
-4 -10 -5 0
-8 6 2 0
10 8 -11 0
10 12 1 0
12 8 -10 0
-1 5 -4 0
4 -5 -9 0
6 -11 10 0
6 5 8 0
-12 -4 -2 0
-11 -1 12 0
5 10 1 0
8 4 6 0
